(set-logic LIA)
(synth-fun next ((brake Int) (distance Int) (speed Int) (throttle Int) (ignition Bool) (time Int) ) Int
	((Start Int) (Var Int) (StartBool Bool))
	((Start Int (
				 1
				 3
				 4
				 (ite StartBool Start Start)))

	(Var Int (
			 0
			 1
			 2
			 3
			 5
			 9
			 557
			 744
			 brake
			 distance
			 speed
			 throttle
			 time
			 (+ Var Var)						
			 (- Var Var)						
			 (* Var Var)))

	(StartBool Bool (
				 	 ignition
					(= Var Var)						
					(>= Var Var)						
					(<= Var Var)						
					(and StartBool StartBool)			
					(or  StartBool StartBool)				
					(not StartBool)))))

(constraint (= (next 0 0 6 4 true 1386 ) 4))
(constraint (= (next 0 0 12 5 true 443 ) 3))
(constraint (= (next 0 1 9 5 true 402 ) 1))

(check-synth)
